CPXPARAM_MIP_Tolerances_MIPGap                   0
Lazy constraint(s) or lazy constraint callback is present.
    Disabling dual reductions (CPX_PARAM_REDUCE) in presolve.
    Disabling non-linear reductions (CPX_PARAM_PRELINEAR) in presolve.
         Disabling repeat represolve because of lazy constraint/incumbent callback.
Tried aggregator 1 time.
MIP Presolve eliminated 1442 rows and 11 columns.
MIP Presolve modified 4 coefficients.
Reduced MIP has 312 rows, 1475 columns, and 650 nonzeros.
Reduced MIP has 1206 binaries, 0 generals, 0 SOSs, and 0 indicators.
Presolve time = 0.00 sec. (0.98 ticks)
Probing time = 0.00 sec. (0.25 ticks)
Clique table members: 66.
MIP emphasis: balance optimality and feasibility.
MIP search method: traditional branch-and-cut.
Parallel mode: none, using 1 thread.
Root relaxation solution time = 0.00 sec. (0.80 ticks)

        Nodes                                         Cuts/
   Node  Left     Objective  IInf  Best Integer    Best Bound    ItCnt     Gap         Variable B NodeID Parent  Depth

      0     0       11.0000    13                     11.0000       13         
      0     0       17.0000     8                    Cuts: 50       38         
      0     0       17.0000    10                    Cuts: 17       56         
      0     0       17.0000     5                     Cuts: 2       67         
      0     0       17.0000     9                  MIRcuts: 2       73         
*     0+    0                           42.0000       17.0000            59.52%
      0     2       17.0000     9       42.0000       17.0000       73   59.52%                        0             0
Elapsed time = 0.11 sec. (29.89 ticks, tree = 0.01 MB, solutions = 1)
*    15     8      integral     0       20.0000       17.0000      248   15.00%
*    20+    1                           17.0000       17.0000             0.00%

Clique cuts applied:  28
Mixed integer rounding cuts applied:  13
User cuts applied:  108

Root node processing (before b&c):
  Real time             =    0.09 sec. (29.92 ticks)
Sequential b&c:
  Real time             =    0.05 sec. (18.04 ticks)
                          ------------
Total (root+branch&cut) =    0.14 sec. (47.96 ticks)
